50
26568

413 267
78 505
959 745
642 994
738 518
853 729
530 833
180 444
820 327
197 89
525 715
703 399
272 199
794 544
832 584
94 785
266 111
410 503
38 220
591 52
828 394
28 94
784 881
756 727
274 485
860 361
586 288
514 778
754 395
550 302
961 774
352 425
924 457
977 75
268 340
671 152
712 230
989 884
993 836
759 21
399 457
872 623
182 198
914 389
938 879
356 565
219 974
852 297
398 164
620 828
